p cnf 150 30
x 1 -2 -4 5 -6 -7 -8 10 11 12 15 16 -18 20 -21 -26 27 28 29 -31 -32 -34 36 37 39 41 42 -43 46 48 -50 51 54 57 61 -62 -68 -69 -70 -73 -79 80 81 83 86 -87 88 -98 99 -100 -101 -102 103 104 105 -106 -110 -114 115 -117 -119 121 122 -123 -124 -125 -126 127 129 130 -132 134 135 -137 -138 -142 -143 -147 -148 150 0
x 2 4 6 9 -11 -12 -13 -14 16 22 -23 24 -25 26 -27 -28 -33 -34 36 37 38 -41 -43 -45 -47 48 -49 50 52 53 -54 58 -60 63 64 -68 -69 70 -72 -73 -75 -76 -79 80 -82 85 -89 -92 -96 97 -99 -100 -103 104 -106 108 110 113 -115 -118 -119 -120 121 -123 -124 126 130 -134 -135 137 -138 -140 143 144 148 150 0
x -1 4 -7 -8 9 -10 -11 14 15 16 -17 21 -22 -24 25 -26 -28 -30 -31 -33 -34 35 -36 -39 41 42 -43 -44 -49 51 55 -56 57 -58 59 64 66 67 -68 71 -75 -79 83 86 -88 92 95 96 97 -100 -102 -103 -104 -106 107 109 -111 112 -114 -118 119 -121 -122 123 -125 -127 -129 136 137 -139 -145 146 0
x -1 -4 -5 -6 -8 10 14 18 19 20 23 -28 29 31 33 -34 -35 38 39 40 42 43 -44 -45 46 47 -51 55 57 58 -59 61 64 67 -68 -69 70 -71 -72 75 -76 -78 79 -80 -81 83 -85 87 -89 -91 -95 -98 99 -100 -103 -105 107 108 112 113 -114 -117 120 125 -127 129 -131 -133 -136 -138 -139 142 -144 -146 -148 0
x 1 2 3 4 8 -10 -13 -15 -18 -20 21 22 -23 -24 25 28 29 -32 -34 35 -36 -37 40 43 45 47 -48 51 52 -54 -55 59 62 63 65 66 67 70 -72 -74 -75 77 78 -80 -82 83 -84 88 89 -90 -94 -95 99 101 -102 106 107 -109 112 113 -117 -118 119 -120 123 126 -127 -128 129 -131 132 -133 134 135 140 -142 144 150 0
x 2 5 -7 -8 9 10 12 14 -17 -18 -19 20 -21 -25 26 28 -30 32 33 34 -35 36 -39 -40 42 43 44 -46 -50 52 54 -57 -58 -60 62 64 -65 67 -69 70 -72 75 78 79 -80 81 -84 87 -90 -91 -92 94 -95 97 98 100 104 -105 107 110 111 -113 115 116 -117 118 120 121 -122 -123 -128 133 134 135 137 139 141 -142 144 -145 -147 -148 -149 0
x 3 -6 7 -9 -10 11 -12 -16 17 18 -19 20 -21 -22 26 -28 30 -32 33 -38 45 46 47 48 53 -54 56 59 60 63 -64 -70 -72 73 -75 76 78 80 81 83 84 85 86 91 -95 -96 -99 -100 101 102 107 -108 109 110 111 -112 113 115 119 120 -123 -125 126 128 -130 -132 -139 -143 144 -145 -146 -147 -148 149 0
x 2 6 -7 -8 -13 14 -16 17 -18 25 -26 27 30 -32 -33 34 35 38 41 46 47 -49 51 52 -53 -54 60 61 -62 63 -65 -66 -67 -69 -70 71 76 -77 81 83 84 91 93 96 -98 99 100 -102 103 104 106 -108 -112 113 -115 116 -128 -130 132 134 136 138 139 -140 141 -142 143 146 -149 0
x -1 -2 -3 -6 -7 8 -10 14 15 16 17 19 -22 23 -24 26 -27 30 -32 33 35 39 -42 44 -45 49 52 53 -56 -59 -61 -62 -64 69 70 -71 72 73 -74 75 -76 81 82 84 85 -87 -91 92 -93 -94 95 98 -99 -103 -104 -106 107 -110 112 114 115 -116 118 -119 121 -124 -125 126 128 -129 130 133 -134 -135 -137 -138 -140 -142 -143 0
x 4 5 -7 -8 -11 -13 17 19 -20 -21 22 23 -27 28 -29 -31 33 34 -35 -36 37 38 -47 -48 -49 -50 -53 -59 -61 62 -63 -64 65 70 73 75 -76 77 -78 -79 -80 -81 -84 85 86 87 88 -90 -91 -94 95 -97 -100 101 106 107 114 116 117 -121 126 -129 -131 -132 -133 -134 135 136 -137 138 -139 141 142 -143 145 -148 0
x -2 -3 9 12 -14 -15 -16 -17 -20 24 -27 -32 36 39 41 42 -46 -47 49 -53 -54 -55 57 -60 -64 -65 -69 -71 72 -73 74 79 83 -85 -87 -91 -95 -97 98 -99 100 101 -102 -103 -104 105 106 -108 -109 113 -115 116 -118 119 122 -123 -124 -128 -131 132 -133 134 138 -140 -143 144 146 -150 0
x 1 -3 4 -11 12 14 -18 -19 -20 -21 -22 -28 -29 -31 33 34 -37 -42 44 -48 -49 -50 53 -55 56 -57 -60 -62 63 64 66 -68 -69 -70 71 -72 73 -74 -75 -76 -79 -81 83 84 86 -88 89 90 -96 101 -102 -103 105 106 -109 -110 -111 -112 115 117 -121 122 -123 -124 125 -126 -128 -130 136 137 140 142 -143 148 149 -150 0
x -7 -8 10 -13 -18 22 -24 28 30 -31 34 35 38 -39 41 -42 43 44 45 46 -47 48 -51 -53 -56 59 62 -63 -64 68 -70 72 -74 -75 76 -77 -80 -83 -85 90 91 -92 93 94 95 97 -99 100 -104 -105 108 110 -111 118 121 -123 -125 -126 128 -129 -130 -131 134 135 136 137 -141 -142 -144 146 149 150 0
x -2 -3 -4 5 -6 8 10 12 14 15 21 -22 23 25 -26 -31 -33 41 43 45 51 -54 -62 63 66 74 76 -80 81 85 86 87 -88 92 100 101 105 108 -111 -112 115 116 117 120 -121 -122 -131 133 136 -139 -141 144 -148 -150 0
x 2 -3 -4 -5 7 -8 -9 -11 16 -19 -20 -21 -24 26 27 28 29 -33 39 -40 41 -43 -44 -47 50 51 52 53 -54 -55 57 58 59 61 66 68 -69 70 -71 -73 76 78 79 -80 82 -85 -86 -87 -88 92 94 95 96 -98 102 -104 -110 -112 -114 115 118 -120 125 127 -129 131 133 -136 -137 138 139 -142 144 149 0
x 2 6 7 8 -9 10 13 15 -17 -18 21 -22 28 -30 -31 33 -34 35 -36 37 -38 42 -47 48 -53 54 -57 59 60 63 -65 -69 -70 71 -73 -76 -78 80 81 -85 -86 87 88 89 -96 97 98 101 -106 -108 109 -110 -112 113 114 116 -117 118 -119 -120 122 123 125 128 -129 130 131 -132 -133 137 143 -145 147 149 150 0
x 1 -2 3 -4 -6 7 12 -16 -17 -19 -20 21 22 23 -24 -29 32 -35 -36 -39 41 42 -43 46 -48 -49 -50 51 -52 -53 -55 -57 58 60 -61 -62 67 68 -71 -72 -75 -77 78 -81 -82 -85 -88 -93 -94 95 96 100 -101 103 -105 -106 -107 109 -110 -114 -115 116 118 119 -122 -123 -125 -127 -129 -133 134 -137 139 140 144 -150 0
x -1 -8 9 -10 -11 -12 -14 18 19 -21 22 23 24 -25 -26 -29 -30 -31 -33 -35 36 40 44 47 48 -49 55 56 -59 61 -62 -65 66 67 68 70 71 -72 74 -76 -77 79 -80 -81 -83 84 87 -88 89 -90 -95 -96 -97 99 -101 -107 -109 -111 114 -121 122 -123 125 -130 -131 132 -139 141 -143 -144 -146 0
x 1 3 5 -6 -7 8 -10 -11 21 -23 -25 -27 28 29 -30 31 -34 -36 38 -41 42 44 -47 49 50 51 -52 54 -55 -56 59 -60 -64 -65 66 67 -68 70 72 73 83 85 91 -95 103 106 107 110 111 -115 116 117 118 119 120 122 -123 124 -125 126 128 -129 130 131 132 -134 136 -140 -143 146 147 -149 0
x 1 2 4 10 -11 -12 -16 19 -20 -21 -23 -25 27 28 -30 33 34 -35 37 38 -39 -42 45 -46 50 56 57 58 61 -62 65 66 -68 -69 -70 71 -74 -75 -77 -82 83 -84 -85 -86 89 -90 94 -96 -97 101 105 111 116 -118 121 -127 131 132 133 -135 -136 -137 139 140 -141 -143 -144 -145 -147 -150 0
x 4 -7 8 10 -11 14 -15 -17 18 20 -21 26 -27 28 -29 -30 31 32 -37 38 -39 -42 -44 -45 46 53 55 -56 -57 -59 -60 61 -64 -67 -68 71 -72 -73 75 -76 -80 82 84 85 86 -87 88 -93 -95 -96 -97 98 99 -100 106 107 -108 111 -113 -117 118 -119 -120 122 -123 -126 127 -129 130 132 -133 -135 137 -141 143 144 148 -149 -150 0
x -1 2 3 7 10 -13 -14 -19 -20 21 22 23 25 -28 30 -34 -35 36 -38 40 41 43 -48 50 53 55 56 57 59 -60 62 -64 65 66 67 -69 -71 75 -77 -81 -88 -90 -91 92 -95 -96 -98 99 102 -103 -104 -107 110 -111 113 114 115 116 117 120 121 122 -123 125 -127 128 -131 133 -134 138 -140 -141 -142 143 -145 146 -148 0
x 1 -3 -4 -5 6 -9 13 -16 20 -22 -24 25 -26 27 28 31 -32 -34 39 -42 44 -46 47 49 -51 -53 -57 -61 -62 65 66 -68 70 74 75 -76 77 81 -83 87 -88 -89 -91 -92 94 -97 -98 -99 -101 104 -109 -111 112 -113 114 118 121 -123 -129 130 132 -140 141 143 -144 0
x -2 -3 -4 5 7 8 -9 15 17 18 -23 -24 -25 -26 29 -32 33 -37 38 -41 -42 -47 -48 -49 50 -51 -52 55 61 -62 66 68 69 70 72 76 -79 83 84 -87 88 89 -90 -94 99 -101 102 103 -111 114 -115 116 -119 121 -127 129 -131 -135 -136 -137 139 -140 -142 -145 -150 0
x -1 3 4 5 -12 -14 -15 -16 18 19 20 -24 -27 28 -30 -31 32 -33 -41 42 43 44 45 47 -48 50 51 -52 -53 54 57 -59 63 64 -66 68 -70 -72 73 -74 75 -77 78 80 -82 -84 86 -87 -88 -90 91 -93 -95 96 98 99 102 104 -105 109 110 -111 -112 -115 -117 -118 -119 -120 125 126 127 -128 -131 132 -134 -137 -138 -139 -140 142 143 -144 146 147 -148 0
x -3 5 6 -8 -17 18 -20 22 23 -24 -27 29 30 32 -33 -34 -36 -37 -39 -41 -43 45 46 48 -49 52 54 -55 -56 -57 59 60 63 64 -66 -67 68 -69 70 72 -75 -77 80 -82 84 -88 89 90 -94 -95 96 -97 98 99 -102 107 110 111 -112 -113 114 -115 -116 -121 122 -124 125 -127 -128 -129 130 -132 134 135 -137 -140 -141 143 144 -147 0
x -1 -3 -4 7 9 10 14 15 16 19 20 -23 -24 25 26 27 29 30 -31 -33 36 37 -40 -42 -43 -44 47 -49 50 -56 58 59 -62 65 -68 69 -70 73 74 76 -78 -80 81 83 -85 -87 -88 90 95 -97 -98 99 100 -102 -103 -104 105 109 -110 111 112 -113 114 115 117 -123 -124 125 -126 -127 -128 -129 -131 -132 -133 135 -136 -137 -139 -140 141 142 143 144 -145 -146 -147 -149 0
x 1 3 5 6 -10 11 12 -13 14 -17 19 -20 21 -23 -24 25 -27 29 30 -31 -32 33 34 36 -37 -38 -40 -41 -43 -45 -48 -49 51 -56 -57 59 61 63 65 66 -67 71 73 -78 -82 83 -85 -89 -90 91 -94 97 99 100 102 -103 106 -107 108 109 -111 114 -115 -117 121 -122 -123 -124 -127 -131 -134 147 -148 149 150 0
x -1 3 -6 7 -10 12 13 14 -15 -16 -17 -18 19 -20 21 -26 27 -29 -30 33 -38 39 -40 44 -45 -49 51 -54 -55 -56 57 61 65 66 -70 73 -75 79 80 81 82 -83 84 -85 89 90 -91 -93 94 95 101 102 -103 105 -107 -109 111 113 -114 116 -117 -118 -119 -122 126 -127 128 -129 132 -137 -138 -139 143 144 -146 148 149 0
x -3 -6 9 12 13 14 24 30 31 -34 -35 -36 39 -41 -42 -46 -47 -54 59 -60 63 64 66 70 -72 75 -76 -77 -78 -79 -80 81 -82 -83 84 -88 89 -90 91 -92 -93 94 95 97 98 -110 -111 115 -119 -120 -121 122 -125 -126 127 131 -134 135 -136 -137 138 -139 -148 -149 150 0
g -60